0 1
0 2
0 5
0 6
0 9
0 10
0 11
0 15
1 2
1 3
1 8
1 10
1 11
2 3
2 5
2 7
2 11
2 12
2 13
3 4
3 6
3 9
3 12
3 13
3 14
4 6
4 13
5 6
6 9
6 12
6 13
7 8
7 12
7 14
8 11
9 12
9 14
9 15
10 11
10 13
11 15
12 13
14 15
